SystemName       job
SystemLabel      job

NumberOfSpecies  1
NumberOfAtoms    2

%block ChemicalSpeciesLabel

 1  14  Si  Si.pbe-nl-cc-00.psf

%endblock ChemicalSpeciesLabel

LatticeConstant  1.000 Ang
%block LatticeVectors
5.43 0 0
0 5.43 0
0 0 5.43
%endblock LatticeVectors

AtomicCoordinatesFormat Ang
%block AtomicCoordinatesAndAtomicSpecies

0.0  0.0  0.0  1

2.715  2.715  2.715  1

%endblock AtomicCoordinatesAndAtomicSpecies

XC.functional       GGA
XC.authors          PBE

MeshCutoff          200 Ry
PAO.BasisSize       DZP
DM.Tolerance        1.d-4
MaxSCFIterations    200
ElectronicTemperature 300 K

%block kgrid_Monkhorst_Pack
8 0   0   0.0
0   8 0   0.0
0    0  8 0.0
%endblock kgrid_Monkhorst_Pack


MD.TypeOfRun          CG
MD.MaxForceTol        0.02 eV/Ang
MD.NumCGsteps         200


SaveHS                T
WriteCoorXmol         T